49
100
70	2
69	4
68	3
67	3
66	2
65	2
64	1
63	1
62	2
60	2
59	3
58	1
57	1
56	2
55	1
54	2
53	1
52	1
50	1
49	2
46	5
45	1
44	4
41	3
40	1
39	1
37	2
36	1
34	2
33	1
32	1
31	1
29	2
28	1
27	4
26	1
24	2
23	2
22	4
20	2
19	2
18	1
17	3
16	2
15	3
14	2
13	3
12	1
10	5
